9182
9182
9293
9293
9293
9046
9046
9046
9046
9046
9046
9046
8941
8941
8941
8941
8941
8941
8941
8941
8941
8941
8941
8941
8941
8941
8941
8941
8941
8941
8941
8941
8941
8941
8941
8941
8941
8941
9204
9204
9204
9204
8854
8854
8854
8854
8854
8854
8854
8854
8854
8854
8854
8854
8854
8854
8854
8854
8854
8934
8934
8934
8934
8934
8934
8934
8934
8934
8934
8934
8934
8934
8934
8934
8934
8835
8835
8835
8835
8835
8835
8835
8835
8835
8835
8835
8835
8835
8835
8835
8835
8835
8835
8835
8835
8835
8835
8835
8835
8835
8835
8835
8835
8835
8835
8835
8835
8835
10009
9379
9379
9159
9159
9159
9119
9119
9119
9119
9119
9119
9119
9119
9119
9119
9119
8816
8816
8816
8816
8816
8816
8816
8816
8816
8816
8816
8816
8816
8816
8816
8816
8816
8816
8816
8816
8816
8816
8816
8816
8816
8816
8816
8816
8816
8816
8816
8816
8816
8816
8816
8816
8816
8816
8816
8816
8816
8816
8816
8816
8816
9010
9010
9010
9010
9010
9010
9010
9010
9010
9010
9010
9010
9010
9010
9010
9010
9010
9010
9010
9010
9010
9010
9010
9010
9010
9010
9010
9010
9010
9010
9010
9010
9010
9010
9010
9010
9010
9010
9010
9010
9010
9010
9075
9075
9075
9075
9075
9075
9075
9206
9014
9014
9014
9014
9014
9014
9014
9014
9014
9014
9014
9014
9014
9014
9014
9014
9014
9014
9014
9014
9014
9014
8968
8968
8968
8968
8968
8968
8968
8968
8968
8968
8968
8968
8968
8968
8968
8968
8968
8968
8968
8968
8968
8968
8968
8968
8968
8968
8968
8968
8968
8968
8968
8968
8968
8968
9096
9096
9096
9102
8677
8677
8677
8677
8677
8677
8677
8677
8677
8677
8677
8677
8677
8677
8677
8677
8677
8896
8896
8896
8896
8896
8896
8896
8896
8896
8896
8981
8981
8981
8981
8981
8981
8981
8981
8981
8981
8981
8981
8981
8981
8981
8981
9086
9086
9086
9086
9063
9063
9063
9063
9083
9083
9083
9083
9083
9083
9083
9083
9083
9083
9083
9083
9083
9083
9083
9083
9083
9083
9083
9083
9083
9083
9083
9083
9065
9065
9065
9065
9065
9065
9065
9065
9065
9065
9065
9065
9065
9065
9049
9137
9137
9137
8771
8771
8771
8771
8771
8771
8771
8771
8771
8771
8771
8771
8771
8771
8771
8771
8771
8771
8771
8771
8771
8771
8771
8771
8771
8771
8771
8848
8848
8848
8848
8848
8848
8848
8848
8848
8848
8848
8848
8848
8848
8848
8848
8848
8848
8848
8848
8848
8848
8848
8848
8848
8848
8848
8848
8848
8848
8848
8848
8848
8848
8848
8848
8848
8848
8848
8848
8848
8848
8848
8848
8848
8848
8848
8848
8848
8848
8766
8766
8766
8766
8766
8766
8766
8766
8766
8766
8766
8766
8766
8766
8766
8766
8766
8766
8766
8766
8766
8766
8825
8825
8825
8878
8878
8878
8878
8878
8878
8878
8878
8878
8878
8878
8878
8878
8878
8878
8878
8878
8878
8878
8878
8878
8878
8878
8878
8878
8878
8878
8878
8878
8878
8878
8878
8878
8878
8878
8878
8878
8878
8878
9200
9200
9200
8851
8851
8851
8851
8851
8851
8851
8851
8851
8851
8851
8851
8851
8851
8851
8851
8851
8851
8851
8851
8851
8851
8851
8851
8851
9088
9088
9088
9088
9088
9088
9088
9088
9011
9011
9011
9011
8695
8695
8695
8695
8695
8695
8695
8695
8695
8695
8695
8695
8695
8695
8695
8695
8695
8695
8695
8695
8695
8695
8695
8695
8695
8695
8695
8695
10009
9263
9263
9263
9263
9263
9263
9263
9143
9143
9143
9341
9341
9341
9341
9341
9341
9341
9341
9341
9341
9341
9341
8874
8874
8874
8874
8874
8874
8874
8874
8874
8874
8874
8874
8874
8874
8874
8874
8874
8874
8874
8874
8887
8887
8887
8887
8887
8887
8887
8887
8887
8887
8887
8887
8887
8887
8887
8887
8887
8887
8887
8887
8887
9110
9110
9110
9110
9110
9110
9149
9149
9055
9055
9055
8768
8768
8768
8768
8768
8768
8768
8768
8768
8768
8768
8768
8768
8768
8768
8768
8768
8768
8768
8768
8768
8768
8768
8768
8768
8768
8768
8768
8768
8768
8768
8768
8768
8768
8768
8768
8816
8816
8816
8479
8479
8479
8479
8479
8479
8479
8479
8479
8479
8479
8479
8479
8479
8479
8479
8479
8479
8479
8479
8479
8479
8479
8479
8479
8479
8479
8479
8479
8479
8479
8479
8479
8479
8479
8479
8479
8479
8479
8479
8479
8479
8479
8479
8479
8479
8479
8479
8479
8479
8479
8479
8479
8479
8479
8479
8479
8479
8479
8479
8479
8479
8479
8479
8479
8479
8479
8479
8479
8479
8479
8479
8479
8479
8479
8479
8479
8479
8479
8479
8479
8479
8479
8479
8479
8479
8479
8479
8479
8479
8479
8479
8479
8479
8479
8479
8479
8479
8479
8479
8479
8479
8479
8479
8479
8479
8479
8479
8708
8708
8708
8708
8708
8708
8708
8708
8708
8708
8708
8708
8708
8708
8708
8708
8708
8708
8708
8708
8708
8708
8708
8708
8708
8708
8708
8708
8708
8708
8708
8708
8708
8708
8708
8708
8708
8708
8708
8708
8708
8708
8708
8708
8708
8708
8708
8708
8708
8708
8708
8708
8708
8560
8560
8560
8560
8560
8560
8560
8560
8560
8560
8560
8560
8560
8560
8560
8560
8560
8560
8560
8560
8560
8560
8560
8560
8560
8560
8560
8560
8560
8560
8560
8560
8560
8560
8560
8560
8560
8560
8560
8560
8560
8560
8560
8560
8560
8560
8560
8560
8560
8560
8560
8560
8560
8560
8560
8560
8560
8560
8560
8560
8560
8560
8560
8560
8947
8947
8947
8947
8947
8947
9048
9065
9065
9065
9065
9065
9065
9065
9065
9065
9065
9143
9149
9149
9149
9149
9149
8655
8655
8655
8655
8655
8655
8655
8655
8655
8655
8655
8655
8655
8655
8655
8655
8655
8655
8655
8655
8655
8655
8655
8655
8655
8655
8655
8655
8655
8655
8655
8655
8655
8655
8655
8655
8655
8655
8655
8655
8655
8655
8655
8655
8655
8655
8655
8655
8655
8655
8655
8655
8655
8655
8655
8655
8655
8655
8655
8655
8655
8655
8655
8655
8655
8655
8655
8655
8655
8655
8655
8655
8655
8655
8655
8655
8655
8655
8655
8655
8655
8655
8655
8655
8655
8655
8655
8655
8655
8655
8655
8655
8655
8655
8655
8655
8655
8655
8655
8655
8655
8655
8655
8655
8655
8655
8655
8655
8655
8655
8655
8655
8655
8655
8655
8655
8655
8655
8655
8655
8655
8655
8655
8655
8655
8655
8655
8655
8655
8655
8655
8655
8655
8655
8655
8655
8655
8655
8655
8655
8655
8655
8655
8655
8655
8655
8655
8655
8655
8655
8655
8655
8655
8655
8655
8655
8655
8655
8655
8655
8655
8655
8655
8655
8655
8655
8655
8655
8655
8655
8655
8655
8655
8655
8536
8536
8536
8536
8536
8536
8536
8536
8536
8536
8536
8536
8536
8536
8536
8536
8536
8536
8536
8536
8536
8536
8536
8536
8536
8536
8536
8536
8536
8536
8536
8536
8536
8536
8536
8536
8536
8536
8879
8879
8879
8879
8879
8865
8865
8865
8865
8865
8865
8865
8865
8865
8865
8865
8865
8800
8800
8821
8821
8821
8821
8821
8821
8821
8821
8821
10009
9316
9316
9293
9293
9149
9149
9149
9149
9149
9149
9149
9149
9149
9149
9149
9149
9149
9149
9149
9149
9149
9149
9274
9069
9069
9069
9069
9069
9069
9069
9069
9069
9069
9069
9069
9069
9069
9069
9069
9069
9069
9069
9069
9069
9069
9069
9069
9069
9069
9069
9069
8874
8874
8874
8874
8874
8874
8874
8874
8874
8874
8874
8874
8874
8874
8874
8874
8874
8874
8874
8874
8874
8655
8655
8655
8655
8655
8655
8655
8655
8655
8655
8655
8655
8655
8655
8655
8655
8655
8655
8655
8655
8655
8655
8655
8655
8655
8655
8655
8655
8655
8655
8655
8655
8560
8560
8560
8560
8560
8560
8560
8560
8560
8560
8560
8560
8560
8560
10009
9333
9333
9333
9333
9333
9333
9269
9269
9139
9149
9097
9097
9097
9097
9014
9014
9014
9014
9014
9014
9014
9014
9014
9014
8477
8477
8477
8477
8477
8477
8477
8477
8477
8477
8477
8477
8477
8477
8477
8477
8477
8477
8477
8477
8477
8477
8477
8477
8477
8477
8477
8477
8477
8477
8477
8477
8477
8477
8477
8477
8477
8477
8477
8477
8477
8477
8477
8477
8477
8477
8477
8477
8477
8477
8477
8477
8477
8477
8477
8477
8477
8477
8477
8477
8477
8477
8477
8477
8477
8477
8477
8477
8477
8477
8477
8477
8477
8477
8477
8477
8477
8477
8477
8477
8477
8477
8477
8477
8477
8477
8477
8477
8477
8477
8477
8477
8477
8477
8477
8477
8477
8477
8477
8477
8477
8477
8477
8477
8477
8477
8477
8477
8477
8477
8477
8477
8477
8477
8477
8477
8477
8477
8477
8477
8477
8477
8477
8477
8477
8477
8477
8477
8477
8477
8477
8477
8477
8477
8477
8477
8477
8477
8477
8477
8477
8477
8477
8477
8477
8477
8477
8477
8477
8477
8477
8477
8477
8477
8477
8477
8477
8477
8477
8477
8477
8477
8477
8477
8477
8477
8477
8477
8477
8477
8477
10009
9553
9459
9459
9459
9459
9459
9459
9459
9459
9459
9149
9149
9149
8865
8865
8865
8865
8865
8865
8865
8865
8865
8865
8865
8865
8865
8865
8865
8865
9263
9263
9263
9263
9263
9263
9263
9263
9263
9263
9263
9241
9158
9126
9126
9126
8981
8981
8981
8981
8981
8981
8981
8981
8981
8981
8981
8981
8981
8981
8981
8981
8655
8655
8655
8655
8655
8655
8655
8655
8655
8655
8655
8655
8655
8655
8655
8655
8655
8655
8655
8655
8655
8655
8655
8655
8655
8655
8655
8655
8655
8655
8655
8655
8655
8655
8655
8655
8655
8655
8655
8655
8655
8655
8655
8655
8655
8655
8655
8655
8655
8655
8655
8655
8655
8655
8655
8655
8655
8655
8655
8655
8655
8655
8655
8655
8655
8655
8655
8655
8655
8655
8655
8655
8655
8655
8655
8655
8785
8785
8785
8785
8785
8785
8785
8785
8785
8997
8997
8997
8988
8988
8988
8988
8988
8988
8988
8988
8988
8988
8988
8988
9095
9095
9095
9095
9095
9095
9095
9109
9109
9109
9109
9109
8737
8737
8737
8737
8737
8737
8737
8737
8737
8737
8737
8737
8737
8737
8737
8737
8737
8737
8737
8711
8711
8711
8711
8711
8711
8711
8711
8711
8711
8711
8711
8711
8711
8711
8711
8711
8711
8711
8711
8711
8711
8711
8711
8711
8711
8711
8711
8711
8546
8546
8546
8546
8546
8546
8546
8546
8546
8546
8546
8546
8546
8546
8546
8546
8546
8546
8546
8546
8546
8479
8479
8479
8479
8479
8479
8479
8479
8479
8479
8479
8479
8479
8479
8479
8479
8479
8479
8479
8479
8479
8479
8479
8479
8479
8479
8479
8479
8479
8479
8479
8479
8479
8479
8479
8479
8479
8479
8479
8479
8479
8479
8479
8479
8479
8479
8479
8479
8479
8479
8479
8479
8479
8479
8479
8479
8479
8479
8479
8479
8479
8479
8479
8479
8479
8479
8479
8479
8479
8479
8479
8479
8479
8479
8479
8479
8479
8479
8479
8479
8479
8479
8479
8479
8479
8479
8479
8479
8479
8479
8479
8479
8479
8479
8479
8479
8479
8479
8479
8479
8479
8479
8479
8479
8479
8479
8479
8479
8479
8479
8479
8479
8479
8479
8479
8479
8479
8479
8479
8479
8479
8479
8479
8479
8479
8479
8479
8479
8479
8479
8479
8479
8479
8479
8479
8479
8479
8479
8479
8479
8479
8479
8479
8479
8479
8479
8479
8479
8479
8479
8479
8479
8479
8479
8479
8479
8479
10009
10009
9088
9025
8737
8737
8737
8737
8737
8737
8737
8737
8737
8737
10009
8934
8934
8934
8934
8934
8934
8934
8825
8825
8825
8825
8800
8800
8800
8869
8869
8869
9126
9126
9126
9046
9046
9046
9046
9046
9046
9014
9014
9014
9014
8877
8877
8877
8877
8877
8846
8846
8782
8782
8782
8782
8782
8782
8782
8782
8782
8782
8782
8782
8782
8782
10017
10009
9197
8928
8928
8928
8585
8585
8585
8585
8806
8806
8806
8806
8806
8806
8806
10017
10009
10009
8998
8872
8872
8872
8872
8703
8703
8703
8703
8703
10017
8536
8630
10017
